/* Objective function */
min: c;

c=4.65080486840603*user3_task10_time0+3.20274459786682*user3_task10_time1+3.20274459786682*user4_task1_time1+3.88615252619014*user3_task4_time2+3.88615252619014*user3_task10_time2+3.88615252619014*user4_task1_time2+3.88615252619014*user5_task4_time2+3.88615252619014*user5_task7_time2+3.51772597357577*user2_task7_time3+3.51772597357577*user3_task4_time3+3.51772597357577*user3_task10_time3+3.51772597357577*user4_task1_time3+3.51772597357577*user5_task4_time3+3.51772597357577*user5_task7_time3+3.31763025094723*user1_task7_time4+3.31763025094723*user2_task7_time4+3.31763025094723*user3_task4_time4+3.31763025094723*user3_task10_time4+3.31763025094723*user4_task1_time4+3.31763025094723*user4_task10_time4+3.31763025094723*user5_task1_time4+3.31763025094723*user5_task3_time4+3.31763025094723*user5_task4_time4+3.31763025094723*user5_task7_time4+3.13703638963475*user1_task7_time5+3.13703638963475*user2_task2_time5+3.13703638963475*user2_task3_time5+3.13703638963475*user2_task7_time5+3.13703638963475*user3_task4_time5+3.13703638963475*user3_task10_time5+3.13703638963475*user4_task1_time5+3.13703638963475*user4_task10_time5+3.13703638963475*user5_task1_time5+3.13703638963475*user5_task3_time5+3.13703638963475*user5_task4_time5+3.13703638963475*user5_task7_time5+3.60075061113977*user1_task5_time6+3.60075061113977*user1_task7_time6+3.60075061113977*user2_task2_time6+3.60075061113977*user2_task3_time6+3.60075061113977*user2_task4_time6+3.60075061113977*user2_task7_time6+3.60075061113977*user2_task10_time6+3.60075061113977*user3_task4_time6+3.60075061113977*user3_task10_time6+3.60075061113977*user4_task1_time6+3.60075061113977*user4_task10_time6+3.60075061113977*user5_task1_time6+3.60075061113977*user5_task3_time6+3.60075061113977*user5_task4_time6+3.60075061113977*user5_task6_time6+3.60075061113977*user5_task7_time6+3.99793918405622*user1_task5_time7+3.99793918405622*user1_task7_time7+3.99793918405622*user1_task9_time7+3.99793918405622*user2_task2_time7+3.99793918405622*user2_task3_time7+3.99793918405622*user2_task4_time7+3.99793918405622*user2_task7_time7+3.99793918405622*user2_task10_time7+3.99793918405622*user3_task4_time7+3.99793918405622*user3_task9_time7+3.99793918405622*user3_task10_time7+3.99793918405622*user4_task1_time7+3.99793918405622*user4_task10_time7+3.99793918405622*user5_task1_time7+3.99793918405622*user5_task3_time7+3.99793918405622*user5_task4_time7+3.99793918405622*user5_task6_time7+5.69206469130384*user1_task5_time8+5.69206469130384*user1_task7_time8+5.69206469130384*user1_task9_time8+5.69206469130384*user1_task10_time8+5.69206469130384*user2_task2_time8+5.69206469130384*user2_task3_time8+5.69206469130384*user2_task4_time8+5.69206469130384*user2_task7_time8+5.69206469130384*user2_task10_time8+5.69206469130384*user3_task4_time8+5.69206469130384*user3_task9_time8+5.69206469130384*user4_task1_time8+5.69206469130384*user4_task9_time8+5.69206469130384*user4_task10_time8+5.69206469130384*user5_task1_time8+5.69206469130384*user5_task3_time8+5.69206469130384*user5_task4_time8+5.69206469130384*user5_task6_time8+4.4760088577552*user1_task5_time9+4.4760088577552*user1_task7_time9+4.4760088577552*user1_task9_time9+4.4760088577552*user1_task10_time9+4.4760088577552*user2_task2_time9+4.4760088577552*user2_task3_time9+4.4760088577552*user2_task4_time9+4.4760088577552*user2_task7_time9+4.4760088577552*user2_task10_time9+4.4760088577552*user3_task4_time9+4.4760088577552*user3_task9_time9+4.4760088577552*user4_task9_time9+4.4760088577552*user4_task10_time9+4.4760088577552*user5_task1_time9+4.4760088577552*user5_task3_time9+4.4760088577552*user5_task4_time9+4.4760088577552*user5_task6_time9+4.99188957491298*user1_task5_time10+4.99188957491298*user1_task7_time10+4.99188957491298*user1_task9_time10+4.99188957491298*user1_task10_time10+4.99188957491298*user2_task2_time10+4.99188957491298*user2_task3_time10+4.99188957491298*user2_task4_time10+4.99188957491298*user2_task7_time10+4.99188957491298*user2_task10_time10+4.99188957491298*user3_task4_time10+4.99188957491298*user3_task6_time10+4.99188957491298*user3_task9_time10+4.99188957491298*user4_task9_time10+4.99188957491298*user4_task10_time10+4.99188957491298*user5_task1_time10+4.99188957491298*user5_task3_time10+4.99188957491298*user5_task4_time10+4.99188957491298*user5_task6_time10+3.93461903969397*user1_task5_time11+3.93461903969397*user1_task9_time11+3.93461903969397*user1_task10_time11+3.93461903969397*user2_task1_time11+3.93461903969397*user2_task2_time11+3.93461903969397*user2_task3_time11+3.93461903969397*user2_task4_time11+3.93461903969397*user2_task7_time11+3.93461903969397*user2_task10_time11+3.93461903969397*user3_task3_time11+3.93461903969397*user3_task4_time11+3.93461903969397*user3_task6_time11+3.93461903969397*user3_task9_time11+3.93461903969397*user4_task2_time11+3.93461903969397*user4_task4_time11+3.93461903969397*user4_task9_time11+3.93461903969397*user4_task10_time11+3.93461903969397*user5_task1_time11+3.93461903969397*user5_task3_time11+3.93461903969397*user5_task4_time11+3.93461903969397*user5_task6_time11+6.13121850521712*user1_task4_time12+6.13121850521712*user1_task5_time12+6.13121850521712*user1_task8_time12+6.13121850521712*user1_task9_time12+6.13121850521712*user1_task10_time12+6.13121850521712*user2_task1_time12+6.13121850521712*user2_task3_time12+6.13121850521712*user2_task4_time12+6.13121850521712*user2_task7_time12+6.13121850521712*user3_task3_time12+6.13121850521712*user3_task4_time12+6.13121850521712*user3_task6_time12+6.13121850521712*user3_task9_time12+6.13121850521712*user4_task2_time12+6.13121850521712*user4_task3_time12+6.13121850521712*user4_task4_time12+6.13121850521712*user4_task8_time12+6.13121850521712*user4_task9_time12+6.13121850521712*user4_task10_time12+6.13121850521712*user5_task1_time12+6.13121850521712*user5_task3_time12+6.13121850521712*user5_task4_time12+6.13121850521712*user5_task6_time12+4.37979848610741*user1_task4_time13+4.37979848610741*user1_task8_time13+4.37979848610741*user1_task9_time13+4.37979848610741*user1_task10_time13+4.37979848610741*user2_task1_time13+4.37979848610741*user2_task3_time13+4.37979848610741*user2_task4_time13+4.37979848610741*user2_task7_time13+4.37979848610741*user2_task9_time13+4.37979848610741*user3_task3_time13+4.37979848610741*user3_task4_time13+4.37979848610741*user3_task5_time13+4.37979848610741*user3_task6_time13+4.37979848610741*user3_task9_time13+4.37979848610741*user4_task2_time13+4.37979848610741*user4_task3_time13+4.37979848610741*user4_task4_time13+4.37979848610741*user4_task8_time13+4.37979848610741*user4_task9_time13+4.37979848610741*user5_task1_time13+4.37979848610741*user5_task3_time13+4.37979848610741*user5_task4_time13+4.37979848610741*user5_task6_time13+4.37979848610741*user5_task8_time13+5.90421083245576*user1_task4_time14+5.90421083245576*user1_task8_time14+5.90421083245576*user1_task9_time14+5.90421083245576*user1_task10_time14+5.90421083245576*user2_task1_time14+5.90421083245576*user2_task3_time14+5.90421083245576*user2_task4_time14+5.90421083245576*user2_task7_time14+5.90421083245576*user2_task9_time14+5.90421083245576*user3_task3_time14+5.90421083245576*user3_task4_time14+5.90421083245576*user3_task5_time14+5.90421083245576*user3_task6_time14+5.90421083245576*user3_task9_time14+5.90421083245576*user4_task2_time14+5.90421083245576*user4_task3_time14+5.90421083245576*user4_task4_time14+5.90421083245576*user4_task8_time14+5.90421083245576*user4_task9_time14+5.90421083245576*user5_task1_time14+5.90421083245576*user5_task3_time14+5.90421083245576*user5_task4_time14+5.90421083245576*user5_task6_time14+5.90421083245576*user5_task8_time14+5.88326405412993*user1_task4_time15+5.88326405412993*user1_task8_time15+5.88326405412993*user2_task1_time15+5.88326405412993*user2_task3_time15+5.88326405412993*user2_task4_time15+5.88326405412993*user2_task7_time15+5.88326405412993*user2_task9_time15+5.88326405412993*user3_task2_time15+5.88326405412993*user3_task3_time15+5.88326405412993*user3_task4_time15+5.88326405412993*user3_task5_time15+5.88326405412993*user3_task6_time15+5.88326405412993*user3_task9_time15+5.88326405412993*user4_task2_time15+5.88326405412993*user4_task3_time15+5.88326405412993*user4_task4_time15+5.88326405412993*user4_task8_time15+5.88326405412993*user4_task9_time15+5.88326405412993*user5_task1_time15+5.88326405412993*user5_task3_time15+5.88326405412993*user5_task4_time15+5.88326405412993*user5_task6_time15+5.88326405412993*user5_task8_time15+5.88326405412993*user5_task9_time15+5.9350735625453*user1_task4_time16+5.9350735625453*user1_task8_time16+5.9350735625453*user2_task1_time16+5.9350735625453*user2_task3_time16+5.9350735625453*user2_task4_time16+5.9350735625453*user2_task7_time16+5.9350735625453*user2_task9_time16+5.9350735625453*user3_task2_time16+5.9350735625453*user3_task4_time16+5.9350735625453*user3_task5_time16+5.9350735625453*user3_task6_time16+5.9350735625453*user3_task9_time16+5.9350735625453*user4_task2_time16+5.9350735625453*user4_task3_time16+5.9350735625453*user4_task4_time16+5.9350735625453*user4_task5_time16+5.9350735625453*user4_task8_time16+5.9350735625453*user4_task9_time16+5.9350735625453*user5_task1_time16+5.9350735625453*user5_task3_time16+5.9350735625453*user5_task4_time16+5.9350735625453*user5_task5_time16+5.9350735625453*user5_task6_time16+5.9350735625453*user5_task8_time16+5.9350735625453*user5_task9_time16+6.0142838464235*user1_task4_time17+6.0142838464235*user1_task8_time17+6.0142838464235*user2_task1_time17+6.0142838464235*user2_task3_time17+6.0142838464235*user2_task4_time17+6.0142838464235*user2_task7_time17+6.0142838464235*user2_task9_time17+6.0142838464235*user3_task2_time17+6.0142838464235*user3_task4_time17+6.0142838464235*user3_task6_time17+6.0142838464235*user3_task9_time17+6.0142838464235*user4_task2_time17+6.0142838464235*user4_task3_time17+6.0142838464235*user4_task5_time17+6.0142838464235*user4_task8_time17+6.0142838464235*user4_task9_time17+6.0142838464235*user5_task1_time17+6.0142838464235*user5_task5_time17+6.0142838464235*user5_task6_time17+6.0142838464235*user5_task8_time17+6.0142838464235*user5_task9_time17+6.0142838464235*user5_task10_time17+6.13690149709776*user1_task2_time18+6.13690149709776*user1_task4_time18+6.13690149709776*user1_task6_time18+6.13690149709776*user1_task8_time18+6.13690149709776*user2_task1_time18+6.13690149709776*user2_task3_time18+6.13690149709776*user2_task4_time18+6.13690149709776*user2_task6_time18+6.13690149709776*user2_task7_time18+6.13690149709776*user3_task2_time18+6.13690149709776*user3_task6_time18+6.13690149709776*user3_task9_time18+6.13690149709776*user4_task2_time18+6.13690149709776*user4_task3_time18+6.13690149709776*user4_task5_time18+6.13690149709776*user4_task8_time18+6.13690149709776*user4_task9_time18+6.13690149709776*user5_task1_time18+6.13690149709776*user5_task2_time18+6.13690149709776*user5_task5_time18+6.13690149709776*user5_task6_time18+6.13690149709776*user5_task9_time18+6.13690149709776*user5_task10_time18+5.40601004692321*user1_task2_time19+5.40601004692321*user1_task3_time19+5.40601004692321*user1_task4_time19+5.40601004692321*user1_task6_time19+5.40601004692321*user2_task1_time19+5.40601004692321*user2_task3_time19+5.40601004692321*user2_task4_time19+5.40601004692321*user2_task5_time19+5.40601004692321*user2_task6_time19+5.40601004692321*user2_task7_time19+5.40601004692321*user3_task2_time19+5.40601004692321*user3_task9_time19+5.40601004692321*user4_task2_time19+5.40601004692321*user4_task3_time19+5.40601004692321*user4_task6_time19+5.40601004692321*user4_task8_time19+5.40601004692321*user4_task9_time19+5.40601004692321*user5_task1_time19+5.40601004692321*user5_task2_time19+5.40601004692321*user5_task5_time19+5.40601004692321*user5_task9_time19+5.40601004692321*user5_task10_time19+5.24022862694901*user1_task1_time20+5.24022862694901*user1_task2_time20+5.24022862694901*user1_task3_time20+5.24022862694901*user1_task4_time20+5.24022862694901*user1_task6_time20+5.24022862694901*user2_task1_time20+5.24022862694901*user2_task3_time20+5.24022862694901*user2_task4_time20+5.24022862694901*user2_task6_time20+5.24022862694901*user2_task7_time20+5.24022862694901*user3_task1_time20+5.24022862694901*user3_task2_time20+5.24022862694901*user3_task8_time20+5.24022862694901*user3_task9_time20+5.24022862694901*user4_task2_time20+5.24022862694901*user4_task6_time20+5.24022862694901*user4_task9_time20+5.24022862694901*user5_task1_time20+5.24022862694901*user5_task2_time20+5.24022862694901*user5_task5_time20+5.24022862694901*user5_task9_time20+5.24022862694901*user5_task10_time20+5.71375423406457*user1_task1_time21+5.71375423406457*user1_task2_time21+5.71375423406457*user1_task3_time21+5.71375423406457*user2_task1_time21+5.71375423406457*user2_task3_time21+5.71375423406457*user2_task6_time21+5.71375423406457*user2_task7_time21+5.71375423406457*user2_task8_time21+5.71375423406457*user3_task1_time21+5.71375423406457*user3_task2_time21+5.71375423406457*user3_task7_time21+5.71375423406457*user3_task8_time21+5.71375423406457*user3_task9_time21+5.71375423406457*user4_task6_time21+5.71375423406457*user5_task2_time21+5.71375423406457*user5_task5_time21+5.71375423406457*user5_task9_time21+5.71375423406457*user5_task10_time21+5.64976474683623*user1_task1_time22+5.64976474683623*user1_task2_time22+5.64976474683623*user2_task1_time22+5.64976474683623*user2_task3_time22+5.64976474683623*user2_task7_time22+5.64976474683623*user2_task8_time22+5.64976474683623*user3_task1_time22+5.64976474683623*user3_task7_time22+5.64976474683623*user3_task8_time22+5.64976474683623*user4_task6_time22+5.64976474683623*user4_task7_time22+5.64976474683623*user5_task2_time22+5.64976474683623*user5_task5_time22+5.64976474683623*user5_task9_time22+5.64976474683623*user5_task10_time22+5.18415407772079*user1_task1_time23+5.18415407772079*user1_task2_time23+5.18415407772079*user2_task3_time23+5.18415407772079*user2_task7_time23+5.18415407772079*user2_task8_time23+5.18415407772079*user3_task1_time23+5.18415407772079*user3_task7_time23+5.18415407772079*user3_task8_time23+5.18415407772079*user4_task6_time23+5.18415407772079*user4_task7_time23+5.18415407772079*user5_task5_time23+5.18415407772079*user5_task9_time23+5.18415407772079*user5_task10_time23;
user1_task1_time20+user1_task1_time21+user1_task1_time22+user1_task1_time23=1;
user1_task2_time18+user1_task2_time19+user1_task2_time20+user1_task2_time21+user1_task2_time22+user1_task2_time23=2;
user1_task3_time19+user1_task3_time20+user1_task3_time21=1;
user1_task4_time12+user1_task4_time13+user1_task4_time14+user1_task4_time15+user1_task4_time16+user1_task4_time17+user1_task4_time18+user1_task4_time19+user1_task4_time20=3;
user1_task5_time6+user1_task5_time7+user1_task5_time8+user1_task5_time9+user1_task5_time10+user1_task5_time11+user1_task5_time12=3;
user1_task6_time18+user1_task6_time19+user1_task6_time20=2;
user1_task7_time4+user1_task7_time5+user1_task7_time6+user1_task7_time7+user1_task7_time8+user1_task7_time9+user1_task7_time10=2;
user1_task8_time12+user1_task8_time13+user1_task8_time14+user1_task8_time15+user1_task8_time16+user1_task8_time17+user1_task8_time18=2;
user1_task9_time7+user1_task9_time8+user1_task9_time9+user1_task9_time10+user1_task9_time11+user1_task9_time12+user1_task9_time13+user1_task9_time14=3;
user1_task10_time8+user1_task10_time9+user1_task10_time10+user1_task10_time11+user1_task10_time12+user1_task10_time13+user1_task10_time14=3;
user2_task1_time11+user2_task1_time12+user2_task1_time13+user2_task1_time14+user2_task1_time15+user2_task1_time16+user2_task1_time17+user2_task1_time18+user2_task1_time19+user2_task1_time20+user2_task1_time21+user2_task1_time22=2;
user2_task2_time5+user2_task2_time6+user2_task2_time7+user2_task2_time8+user2_task2_time9+user2_task2_time10+user2_task2_time11=2;
user2_task3_time5+user2_task3_time6+user2_task3_time7+user2_task3_time8+user2_task3_time9+user2_task3_time10+user2_task3_time11+user2_task3_time12+user2_task3_time13+user2_task3_time14+user2_task3_time15+user2_task3_time16+user2_task3_time17+user2_task3_time18+user2_task3_time19+user2_task3_time20+user2_task3_time21+user2_task3_time22+user2_task3_time23=1;
user2_task4_time6+user2_task4_time7+user2_task4_time8+user2_task4_time9+user2_task4_time10+user2_task4_time11+user2_task4_time12+user2_task4_time13+user2_task4_time14+user2_task4_time15+user2_task4_time16+user2_task4_time17+user2_task4_time18+user2_task4_time19+user2_task4_time20=3;
user2_task5_time19=1;
user2_task6_time18+user2_task6_time19+user2_task6_time20+user2_task6_time21=2;
user2_task7_time3+user2_task7_time4+user2_task7_time5+user2_task7_time6+user2_task7_time7+user2_task7_time8+user2_task7_time9+user2_task7_time10+user2_task7_time11+user2_task7_time12+user2_task7_time13+user2_task7_time14+user2_task7_time15+user2_task7_time16+user2_task7_time17+user2_task7_time18+user2_task7_time19+user2_task7_time20+user2_task7_time21+user2_task7_time22+user2_task7_time23=3;
user2_task8_time21+user2_task8_time22+user2_task8_time23=2;
user2_task9_time13+user2_task9_time14+user2_task9_time15+user2_task9_time16+user2_task9_time17=1;
user2_task10_time6+user2_task10_time7+user2_task10_time8+user2_task10_time9+user2_task10_time10+user2_task10_time11=2;
user3_task1_time20+user3_task1_time21+user3_task1_time22+user3_task1_time23=2;
user3_task2_time15+user3_task2_time16+user3_task2_time17+user3_task2_time18+user3_task2_time19+user3_task2_time20+user3_task2_time21=3;
user3_task3_time11+user3_task3_time12+user3_task3_time13+user3_task3_time14+user3_task3_time15=2;
user3_task4_time2+user3_task4_time3+user3_task4_time4+user3_task4_time5+user3_task4_time6+user3_task4_time7+user3_task4_time8+user3_task4_time9+user3_task4_time10+user3_task4_time11+user3_task4_time12+user3_task4_time13+user3_task4_time14+user3_task4_time15+user3_task4_time16+user3_task4_time17=3;
user3_task5_time13+user3_task5_time14+user3_task5_time15+user3_task5_time16=2;
user3_task6_time10+user3_task6_time11+user3_task6_time12+user3_task6_time13+user3_task6_time14+user3_task6_time15+user3_task6_time16+user3_task6_time17+user3_task6_time18=2;
user3_task7_time21+user3_task7_time22+user3_task7_time23=2;
user3_task8_time20+user3_task8_time21+user3_task8_time22+user3_task8_time23=1;
user3_task9_time7+user3_task9_time8+user3_task9_time9+user3_task9_time10+user3_task9_time11+user3_task9_time12+user3_task9_time13+user3_task9_time14+user3_task9_time15+user3_task9_time16+user3_task9_time17+user3_task9_time18+user3_task9_time19+user3_task9_time20+user3_task9_time21=2;
user3_task10_time0+user3_task10_time1+user3_task10_time2+user3_task10_time3+user3_task10_time4+user3_task10_time5+user3_task10_time6+user3_task10_time7=3;
user4_task1_time1+user4_task1_time2+user4_task1_time3+user4_task1_time4+user4_task1_time5+user4_task1_time6+user4_task1_time7+user4_task1_time8=1;
user4_task2_time11+user4_task2_time12+user4_task2_time13+user4_task2_time14+user4_task2_time15+user4_task2_time16+user4_task2_time17+user4_task2_time18+user4_task2_time19+user4_task2_time20=2;
user4_task3_time12+user4_task3_time13+user4_task3_time14+user4_task3_time15+user4_task3_time16+user4_task3_time17+user4_task3_time18+user4_task3_time19=3;
user4_task4_time11+user4_task4_time12+user4_task4_time13+user4_task4_time14+user4_task4_time15+user4_task4_time16=3;
user4_task5_time16+user4_task5_time17+user4_task5_time18=1;
user4_task6_time19+user4_task6_time20+user4_task6_time21+user4_task6_time22+user4_task6_time23=3;
user4_task7_time22+user4_task7_time23=1;
user4_task8_time12+user4_task8_time13+user4_task8_time14+user4_task8_time15+user4_task8_time16+user4_task8_time17+user4_task8_time18+user4_task8_time19=2;
user4_task9_time8+user4_task9_time9+user4_task9_time10+user4_task9_time11+user4_task9_time12+user4_task9_time13+user4_task9_time14+user4_task9_time15+user4_task9_time16+user4_task9_time17+user4_task9_time18+user4_task9_time19+user4_task9_time20=2;
user4_task10_time4+user4_task10_time5+user4_task10_time6+user4_task10_time7+user4_task10_time8+user4_task10_time9+user4_task10_time10+user4_task10_time11+user4_task10_time12=2;
user5_task1_time4+user5_task1_time5+user5_task1_time6+user5_task1_time7+user5_task1_time8+user5_task1_time9+user5_task1_time10+user5_task1_time11+user5_task1_time12+user5_task1_time13+user5_task1_time14+user5_task1_time15+user5_task1_time16+user5_task1_time17+user5_task1_time18+user5_task1_time19+user5_task1_time20=1;
user5_task2_time18+user5_task2_time19+user5_task2_time20+user5_task2_time21+user5_task2_time22=3;
user5_task3_time4+user5_task3_time5+user5_task3_time6+user5_task3_time7+user5_task3_time8+user5_task3_time9+user5_task3_time10+user5_task3_time11+user5_task3_time12+user5_task3_time13+user5_task3_time14+user5_task3_time15+user5_task3_time16=1;
user5_task4_time2+user5_task4_time3+user5_task4_time4+user5_task4_time5+user5_task4_time6+user5_task4_time7+user5_task4_time8+user5_task4_time9+user5_task4_time10+user5_task4_time11+user5_task4_time12+user5_task4_time13+user5_task4_time14+user5_task4_time15+user5_task4_time16=3;
user5_task5_time16+user5_task5_time17+user5_task5_time18+user5_task5_time19+user5_task5_time20+user5_task5_time21+user5_task5_time22+user5_task5_time23=2;
user5_task6_time6+user5_task6_time7+user5_task6_time8+user5_task6_time9+user5_task6_time10+user5_task6_time11+user5_task6_time12+user5_task6_time13+user5_task6_time14+user5_task6_time15+user5_task6_time16+user5_task6_time17+user5_task6_time18=2;
user5_task7_time2+user5_task7_time3+user5_task7_time4+user5_task7_time5+user5_task7_time6=1;
user5_task8_time13+user5_task8_time14+user5_task8_time15+user5_task8_time16+user5_task8_time17=3;
user5_task9_time15+user5_task9_time16+user5_task9_time17+user5_task9_time18+user5_task9_time19+user5_task9_time20+user5_task9_time21+user5_task9_time22+user5_task9_time23=1;
user5_task10_time17+user5_task10_time18+user5_task10_time19+user5_task10_time20+user5_task10_time21+user5_task10_time22+user5_task10_time23=1;
0<=user1_task1_time20<=1;
0<=user1_task1_time21<=1;
0<=user1_task1_time22<=1;
0<=user1_task1_time23<=1;
0<=user1_task2_time18<=1;
0<=user1_task2_time19<=1;
0<=user1_task2_time20<=1;
0<=user1_task2_time21<=1;
0<=user1_task2_time22<=1;
0<=user1_task2_time23<=1;
0<=user1_task3_time19<=1;
0<=user1_task3_time20<=1;
0<=user1_task3_time21<=1;
0<=user1_task4_time12<=1;
0<=user1_task4_time13<=1;
0<=user1_task4_time14<=1;
0<=user1_task4_time15<=1;
0<=user1_task4_time16<=1;
0<=user1_task4_time17<=1;
0<=user1_task4_time18<=1;
0<=user1_task4_time19<=1;
0<=user1_task4_time20<=1;
0<=user1_task5_time6<=1;
0<=user1_task5_time7<=1;
0<=user1_task5_time8<=1;
0<=user1_task5_time9<=1;
0<=user1_task5_time10<=1;
0<=user1_task5_time11<=1;
0<=user1_task5_time12<=1;
0<=user1_task6_time18<=1;
0<=user1_task6_time19<=1;
0<=user1_task6_time20<=1;
0<=user1_task7_time4<=1;
0<=user1_task7_time5<=1;
0<=user1_task7_time6<=1;
0<=user1_task7_time7<=1;
0<=user1_task7_time8<=1;
0<=user1_task7_time9<=1;
0<=user1_task7_time10<=1;
0<=user1_task8_time12<=1;
0<=user1_task8_time13<=1;
0<=user1_task8_time14<=1;
0<=user1_task8_time15<=1;
0<=user1_task8_time16<=1;
0<=user1_task8_time17<=1;
0<=user1_task8_time18<=1;
0<=user1_task9_time7<=1;
0<=user1_task9_time8<=1;
0<=user1_task9_time9<=1;
0<=user1_task9_time10<=1;
0<=user1_task9_time11<=1;
0<=user1_task9_time12<=1;
0<=user1_task9_time13<=1;
0<=user1_task9_time14<=1;
0<=user1_task10_time8<=1;
0<=user1_task10_time9<=1;
0<=user1_task10_time10<=1;
0<=user1_task10_time11<=1;
0<=user1_task10_time12<=1;
0<=user1_task10_time13<=1;
0<=user1_task10_time14<=1;
0<=user2_task1_time11<=1;
0<=user2_task1_time12<=1;
0<=user2_task1_time13<=1;
0<=user2_task1_time14<=1;
0<=user2_task1_time15<=1;
0<=user2_task1_time16<=1;
0<=user2_task1_time17<=1;
0<=user2_task1_time18<=1;
0<=user2_task1_time19<=1;
0<=user2_task1_time20<=1;
0<=user2_task1_time21<=1;
0<=user2_task1_time22<=1;
0<=user2_task2_time5<=1;
0<=user2_task2_time6<=1;
0<=user2_task2_time7<=1;
0<=user2_task2_time8<=1;
0<=user2_task2_time9<=1;
0<=user2_task2_time10<=1;
0<=user2_task2_time11<=1;
0<=user2_task3_time5<=1;
0<=user2_task3_time6<=1;
0<=user2_task3_time7<=1;
0<=user2_task3_time8<=1;
0<=user2_task3_time9<=1;
0<=user2_task3_time10<=1;
0<=user2_task3_time11<=1;
0<=user2_task3_time12<=1;
0<=user2_task3_time13<=1;
0<=user2_task3_time14<=1;
0<=user2_task3_time15<=1;
0<=user2_task3_time16<=1;
0<=user2_task3_time17<=1;
0<=user2_task3_time18<=1;
0<=user2_task3_time19<=1;
0<=user2_task3_time20<=1;
0<=user2_task3_time21<=1;
0<=user2_task3_time22<=1;
0<=user2_task3_time23<=1;
0<=user2_task4_time6<=1;
0<=user2_task4_time7<=1;
0<=user2_task4_time8<=1;
0<=user2_task4_time9<=1;
0<=user2_task4_time10<=1;
0<=user2_task4_time11<=1;
0<=user2_task4_time12<=1;
0<=user2_task4_time13<=1;
0<=user2_task4_time14<=1;
0<=user2_task4_time15<=1;
0<=user2_task4_time16<=1;
0<=user2_task4_time17<=1;
0<=user2_task4_time18<=1;
0<=user2_task4_time19<=1;
0<=user2_task4_time20<=1;
0<=user2_task5_time19<=1;
0<=user2_task6_time18<=1;
0<=user2_task6_time19<=1;
0<=user2_task6_time20<=1;
0<=user2_task6_time21<=1;
0<=user2_task7_time3<=1;
0<=user2_task7_time4<=1;
0<=user2_task7_time5<=1;
0<=user2_task7_time6<=1;
0<=user2_task7_time7<=1;
0<=user2_task7_time8<=1;
0<=user2_task7_time9<=1;
0<=user2_task7_time10<=1;
0<=user2_task7_time11<=1;
0<=user2_task7_time12<=1;
0<=user2_task7_time13<=1;
0<=user2_task7_time14<=1;
0<=user2_task7_time15<=1;
0<=user2_task7_time16<=1;
0<=user2_task7_time17<=1;
0<=user2_task7_time18<=1;
0<=user2_task7_time19<=1;
0<=user2_task7_time20<=1;
0<=user2_task7_time21<=1;
0<=user2_task7_time22<=1;
0<=user2_task7_time23<=1;
0<=user2_task8_time21<=1;
0<=user2_task8_time22<=1;
0<=user2_task8_time23<=1;
0<=user2_task9_time13<=1;
0<=user2_task9_time14<=1;
0<=user2_task9_time15<=1;
0<=user2_task9_time16<=1;
0<=user2_task9_time17<=1;
0<=user2_task10_time6<=1;
0<=user2_task10_time7<=1;
0<=user2_task10_time8<=1;
0<=user2_task10_time9<=1;
0<=user2_task10_time10<=1;
0<=user2_task10_time11<=1;
0<=user3_task1_time20<=1;
0<=user3_task1_time21<=1;
0<=user3_task1_time22<=1;
0<=user3_task1_time23<=1;
0<=user3_task2_time15<=1;
0<=user3_task2_time16<=1;
0<=user3_task2_time17<=1;
0<=user3_task2_time18<=1;
0<=user3_task2_time19<=1;
0<=user3_task2_time20<=1;
0<=user3_task2_time21<=1;
0<=user3_task3_time11<=1;
0<=user3_task3_time12<=1;
0<=user3_task3_time13<=1;
0<=user3_task3_time14<=1;
0<=user3_task3_time15<=1;
0<=user3_task4_time2<=1;
0<=user3_task4_time3<=1;
0<=user3_task4_time4<=1;
0<=user3_task4_time5<=1;
0<=user3_task4_time6<=1;
0<=user3_task4_time7<=1;
0<=user3_task4_time8<=1;
0<=user3_task4_time9<=1;
0<=user3_task4_time10<=1;
0<=user3_task4_time11<=1;
0<=user3_task4_time12<=1;
0<=user3_task4_time13<=1;
0<=user3_task4_time14<=1;
0<=user3_task4_time15<=1;
0<=user3_task4_time16<=1;
0<=user3_task4_time17<=1;
0<=user3_task5_time13<=1;
0<=user3_task5_time14<=1;
0<=user3_task5_time15<=1;
0<=user3_task5_time16<=1;
0<=user3_task6_time10<=1;
0<=user3_task6_time11<=1;
0<=user3_task6_time12<=1;
0<=user3_task6_time13<=1;
0<=user3_task6_time14<=1;
0<=user3_task6_time15<=1;
0<=user3_task6_time16<=1;
0<=user3_task6_time17<=1;
0<=user3_task6_time18<=1;
0<=user3_task7_time21<=1;
0<=user3_task7_time22<=1;
0<=user3_task7_time23<=1;
0<=user3_task8_time20<=1;
0<=user3_task8_time21<=1;
0<=user3_task8_time22<=1;
0<=user3_task8_time23<=1;
0<=user3_task9_time7<=1;
0<=user3_task9_time8<=1;
0<=user3_task9_time9<=1;
0<=user3_task9_time10<=1;
0<=user3_task9_time11<=1;
0<=user3_task9_time12<=1;
0<=user3_task9_time13<=1;
0<=user3_task9_time14<=1;
0<=user3_task9_time15<=1;
0<=user3_task9_time16<=1;
0<=user3_task9_time17<=1;
0<=user3_task9_time18<=1;
0<=user3_task9_time19<=1;
0<=user3_task9_time20<=1;
0<=user3_task9_time21<=1;
0<=user3_task10_time0<=1;
0<=user3_task10_time1<=1;
0<=user3_task10_time2<=1;
0<=user3_task10_time3<=1;
0<=user3_task10_time4<=1;
0<=user3_task10_time5<=1;
0<=user3_task10_time6<=1;
0<=user3_task10_time7<=1;
0<=user4_task1_time1<=1;
0<=user4_task1_time2<=1;
0<=user4_task1_time3<=1;
0<=user4_task1_time4<=1;
0<=user4_task1_time5<=1;
0<=user4_task1_time6<=1;
0<=user4_task1_time7<=1;
0<=user4_task1_time8<=1;
0<=user4_task2_time11<=1;
0<=user4_task2_time12<=1;
0<=user4_task2_time13<=1;
0<=user4_task2_time14<=1;
0<=user4_task2_time15<=1;
0<=user4_task2_time16<=1;
0<=user4_task2_time17<=1;
0<=user4_task2_time18<=1;
0<=user4_task2_time19<=1;
0<=user4_task2_time20<=1;
0<=user4_task3_time12<=1;
0<=user4_task3_time13<=1;
0<=user4_task3_time14<=1;
0<=user4_task3_time15<=1;
0<=user4_task3_time16<=1;
0<=user4_task3_time17<=1;
0<=user4_task3_time18<=1;
0<=user4_task3_time19<=1;
0<=user4_task4_time11<=1;
0<=user4_task4_time12<=1;
0<=user4_task4_time13<=1;
0<=user4_task4_time14<=1;
0<=user4_task4_time15<=1;
0<=user4_task4_time16<=1;
0<=user4_task5_time16<=1;
0<=user4_task5_time17<=1;
0<=user4_task5_time18<=1;
0<=user4_task6_time19<=1;
0<=user4_task6_time20<=1;
0<=user4_task6_time21<=1;
0<=user4_task6_time22<=1;
0<=user4_task6_time23<=1;
0<=user4_task7_time22<=1;
0<=user4_task7_time23<=1;
0<=user4_task8_time12<=1;
0<=user4_task8_time13<=1;
0<=user4_task8_time14<=1;
0<=user4_task8_time15<=1;
0<=user4_task8_time16<=1;
0<=user4_task8_time17<=1;
0<=user4_task8_time18<=1;
0<=user4_task8_time19<=1;
0<=user4_task9_time8<=1;
0<=user4_task9_time9<=1;
0<=user4_task9_time10<=1;
0<=user4_task9_time11<=1;
0<=user4_task9_time12<=1;
0<=user4_task9_time13<=1;
0<=user4_task9_time14<=1;
0<=user4_task9_time15<=1;
0<=user4_task9_time16<=1;
0<=user4_task9_time17<=1;
0<=user4_task9_time18<=1;
0<=user4_task9_time19<=1;
0<=user4_task9_time20<=1;
0<=user4_task10_time4<=1;
0<=user4_task10_time5<=1;
0<=user4_task10_time6<=1;
0<=user4_task10_time7<=1;
0<=user4_task10_time8<=1;
0<=user4_task10_time9<=1;
0<=user4_task10_time10<=1;
0<=user4_task10_time11<=1;
0<=user4_task10_time12<=1;
0<=user5_task1_time4<=1;
0<=user5_task1_time5<=1;
0<=user5_task1_time6<=1;
0<=user5_task1_time7<=1;
0<=user5_task1_time8<=1;
0<=user5_task1_time9<=1;
0<=user5_task1_time10<=1;
0<=user5_task1_time11<=1;
0<=user5_task1_time12<=1;
0<=user5_task1_time13<=1;
0<=user5_task1_time14<=1;
0<=user5_task1_time15<=1;
0<=user5_task1_time16<=1;
0<=user5_task1_time17<=1;
0<=user5_task1_time18<=1;
0<=user5_task1_time19<=1;
0<=user5_task1_time20<=1;
0<=user5_task2_time18<=1;
0<=user5_task2_time19<=1;
0<=user5_task2_time20<=1;
0<=user5_task2_time21<=1;
0<=user5_task2_time22<=1;
0<=user5_task3_time4<=1;
0<=user5_task3_time5<=1;
0<=user5_task3_time6<=1;
0<=user5_task3_time7<=1;
0<=user5_task3_time8<=1;
0<=user5_task3_time9<=1;
0<=user5_task3_time10<=1;
0<=user5_task3_time11<=1;
0<=user5_task3_time12<=1;
0<=user5_task3_time13<=1;
0<=user5_task3_time14<=1;
0<=user5_task3_time15<=1;
0<=user5_task3_time16<=1;
0<=user5_task4_time2<=1;
0<=user5_task4_time3<=1;
0<=user5_task4_time4<=1;
0<=user5_task4_time5<=1;
0<=user5_task4_time6<=1;
0<=user5_task4_time7<=1;
0<=user5_task4_time8<=1;
0<=user5_task4_time9<=1;
0<=user5_task4_time10<=1;
0<=user5_task4_time11<=1;
0<=user5_task4_time12<=1;
0<=user5_task4_time13<=1;
0<=user5_task4_time14<=1;
0<=user5_task4_time15<=1;
0<=user5_task4_time16<=1;
0<=user5_task5_time16<=1;
0<=user5_task5_time17<=1;
0<=user5_task5_time18<=1;
0<=user5_task5_time19<=1;
0<=user5_task5_time20<=1;
0<=user5_task5_time21<=1;
0<=user5_task5_time22<=1;
0<=user5_task5_time23<=1;
0<=user5_task6_time6<=1;
0<=user5_task6_time7<=1;
0<=user5_task6_time8<=1;
0<=user5_task6_time9<=1;
0<=user5_task6_time10<=1;
0<=user5_task6_time11<=1;
0<=user5_task6_time12<=1;
0<=user5_task6_time13<=1;
0<=user5_task6_time14<=1;
0<=user5_task6_time15<=1;
0<=user5_task6_time16<=1;
0<=user5_task6_time17<=1;
0<=user5_task6_time18<=1;
0<=user5_task7_time2<=1;
0<=user5_task7_time3<=1;
0<=user5_task7_time4<=1;
0<=user5_task7_time5<=1;
0<=user5_task7_time6<=1;
0<=user5_task8_time13<=1;
0<=user5_task8_time14<=1;
0<=user5_task8_time15<=1;
0<=user5_task8_time16<=1;
0<=user5_task8_time17<=1;
0<=user5_task9_time15<=1;
0<=user5_task9_time16<=1;
0<=user5_task9_time17<=1;
0<=user5_task9_time18<=1;
0<=user5_task9_time19<=1;
0<=user5_task9_time20<=1;
0<=user5_task9_time21<=1;
0<=user5_task9_time22<=1;
0<=user5_task9_time23<=1;
0<=user5_task10_time17<=1;
0<=user5_task10_time18<=1;
0<=user5_task10_time19<=1;
0<=user5_task10_time20<=1;
0<=user5_task10_time21<=1;
0<=user5_task10_time22<=1;
0<=user5_task10_time23<=1;

/* Variable bounds */